\ Model Routes
\ LP format - for model browsing. Use MPS format to capture full model detail.
Maximize
  - 191.7153353028244 R{0,0} + 623.2046552982704 R{0,1}
   + 623.2046552982704 R{0,2} - 249.2301939667805 R{0,3}
   + 222.8649545650627 R{0,4} + 892.5014194710873 R{0,5}
   + 892.5797788830071 R{0,6} + 281.9883365781351 R{0,7}
   + 568.2280287393723 R{0,8} + 96.79623890446209 R{0,9}
   + 227.0117100192371 R{0,10} + 234.7650315204939 R{0,11}
   - 256.140831891889 R{1,0} + 216.3226429839851 R{1,1}
   + 843.8103196491563 R{1,2} + 887.7313027960076 R{1,3}
   + 541.9724420902087 R{1,4} + 486.8114773416354 R{1,5}
   + 1283.942081065736 R{1,6} + 839.0082618876104 R{1,7}
   + 1198.881248318718 R{2,0} + 1198.881248318718 R{2,1}
   - 278.4443928850388 R{2,2} - 59.13410337035452 R{2,3}
   + 602.7748664658451 R{2,4} + 1100.505917706273 R{2,5}
   + 465.2175846111744 R{2,6} + 644.4168851140871 R{2,7}
   + 947.5724883564153 R{2,8} + 838.1281267964846 R{2,9}
   + 1005.777703503751 R{2,10} - 260.2482995389823 R{3,0}
   + 459.0257104485919 R{3,1} + 838.3862215394925 R{3,2}
   + 559.1044093239825 R{3,3} + 768.8491195486179 R{3,4}
   + 648.2136126374396 R{3,5} + 629.2970816746169 R{3,6}
   + 1032.449094175272 R{3,7} + 356.3312329338293 R{3,8}
   + 503.1371810663061 R{3,9} + 641.4161120745041 R{3,10}
   - 242.5208875955131 R{4,0} + 1066.379443184683 R{4,1}
   + 1576.196574514046 R{4,2} + 1600.37873589961 R{4,3}
   + 1076.646053538534 R{4,4} + 1948.139305753423 R{4,5}
   + 1387.855122497651 R{4,6} + 1253.19691895198 R{4,7}
   + 1590.943074026583 R{4,8} + 1696.656156356691 R{4,9}
   + 1049.672267093044 R{4,10} + 1076.720348292465 R{4,11}
   + 1438.075071770302 R{4,12} - 231.9775664337766 R{5,0}
   + 166.8396544238635 R{5,1} + 729.4065638506388 R{5,2}
   + 166.1665199462921 R{5,3} + 166.1665199462921 R{5,4}
   + 166.1665199462921 R{5,5} + 166.1665199462921 R{5,6}
   + 247.6677793276814 R{5,7} - 231.1436095783099 R{6,0}
   + 1370.402709432251 R{6,1} + 2203.660382897198 R{6,2}
   + 2548.258740052186 R{6,3} + 1316.613306221454 R{6,4}
   + 1420.806284698038 R{6,5} + 1658.102212669645 R{6,6}
   + 2026.44884526813 R{6,7} + 1110.360273013352 R{6,8}
   + 1135.052373383262 R{6,9} + 1624.735615590218 R{6,10}
   + 1566.984421369806 R{6,11} + 877.251250111445 R{6,12}
   + 2363.895502941625 R{6,13} + 1988.364968442423 R{6,14}
   + 2130.500027270942 R{6,15} + 1797.187962172457 R{6,16}
   + 1873.018012595388 R{6,17}
Subject To
 R00: R{0,0} <= 1
 R01: R{0,1} <= 1
 R02: R{0,2} <= 1
 R03: R{0,3} <= 1
 R04: R{0,4} <= 1
 R05: R{0,5} <= 1
 R06: R{0,6} <= 1
 R07: R{0,7} <= 1
 R08: R{0,8} <= 1
 R09: R{0,9} <= 1
 R010: R{0,10} <= 1
 R011: R{0,11} <= 1
 R012: R{1,0} <= 1
 R013: R{1,1} <= 1
 R014: R{1,2} <= 1
 R015: R{1,3} <= 1
 R016: R{1,4} <= 1
 R017: R{1,5} <= 1
 R018: R{1,6} <= 1
 R019: R{1,7} <= 1
 R020: R{2,0} <= 1
 R021: R{2,1} <= 1
 R022: R{2,2} <= 1
 R023: R{2,3} <= 1
 R024: R{2,4} <= 1
 R025: R{2,5} <= 1
 R026: R{2,6} <= 1
 R027: R{2,7} <= 1
 R028: R{2,8} <= 1
 R029: R{2,9} <= 1
 R030: R{2,10} <= 1
 R031: R{3,0} <= 1
 R032: R{3,1} <= 1
 R033: R{3,2} <= 1
 R034: R{3,3} <= 1
 R035: R{3,4} <= 1
 R036: R{3,5} <= 1
 R037: R{3,6} <= 1
 R038: R{3,7} <= 1
 R039: R{3,8} <= 1
 R040: R{3,9} <= 1
 R041: R{3,10} <= 1
 R042: R{4,0} <= 1
 R043: R{4,1} <= 1
 R044: R{4,2} <= 1
 R045: R{4,3} <= 1
 R046: R{4,4} <= 1
 R047: R{4,5} <= 1
 R048: R{4,6} <= 1
 R049: R{4,7} <= 1
 R050: R{4,8} <= 1
 R051: R{4,9} <= 1
 R052: R{4,10} <= 1
 R053: R{4,11} <= 1
 R054: R{4,12} <= 1
 R055: R{5,0} <= 1
 R056: R{5,1} <= 1
 R057: R{5,2} <= 1
 R058: R{5,3} <= 1
 R059: R{5,4} <= 1
 R060: R{5,5} <= 1
 R061: R{5,6} <= 1
 R062: R{5,7} <= 1
 R063: R{6,0} <= 1
 R064: R{6,1} <= 1
 R065: R{6,2} <= 1
 R066: R{6,3} <= 1
 R067: R{6,4} <= 1
 R068: R{6,5} <= 1
 R069: R{6,6} <= 1
 R070: R{6,7} <= 1
 R071: R{6,8} <= 1
 R072: R{6,9} <= 1
 R073: R{6,10} <= 1
 R074: R{6,11} <= 1
 R075: R{6,12} <= 1
 R076: R{6,13} <= 1
 R077: R{6,14} <= 1
 R078: R{6,15} <= 1
 R079: R{6,16} <= 1
 R080: R{6,17} <= 1
 R1_0: R{0,0} + R{0,1} + R{0,2} + R{0,3} + R{0,4} + R{0,5} + R{0,6}
   + R{0,7} + R{0,8} + R{0,9} + R{0,10} + R{0,11} <= 1
 R1_1: R{1,0} + R{1,1} + R{1,2} + R{1,3} + R{1,4} + R{1,5} + R{1,6}
   + R{1,7} <= 1
 R1_2: R{2,0} + R{2,1} + R{2,2} + R{2,3} + R{2,4} + R{2,5} + R{2,6}
   + R{2,7} + R{2,8} + R{2,9} + R{2,10} <= 1
 R1_3: R{3,0} + R{3,1} + R{3,2} + R{3,3} + R{3,4} + R{3,5} + R{3,6}
   + R{3,7} + R{3,8} + R{3,9} + R{3,10} <= 1
 R1_4: R{4,0} + R{4,1} + R{4,2} + R{4,3} + R{4,4} + R{4,5} + R{4,6}
   + R{4,7} + R{4,8} + R{4,9} + R{4,10} + R{4,11} + R{4,12} <= 1
 R1_5: R{5,0} + R{5,1} + R{5,2} + R{5,3} + R{5,4} + R{5,5} + R{5,6}
   + R{5,7} <= 1
 R1_6: R{6,0} + R{6,1} + R{6,2} + R{6,3} + R{6,4} + R{6,5} + R{6,6}
   + R{6,7} + R{6,8} + R{6,9} + R{6,10} + R{6,11} + R{6,12} + R{6,13}
   + R{6,14} + R{6,15} + R{6,16} + R{6,17} <= 1
 R2_0: <= 0
 R2_1: 10 R{3,1} + 10 R{3,2} + 10 R{3,3} + 10 R{3,4} + 10 R{3,7}
   + 10 R{3,9} + 10 R{6,14} <= 10
 R2_2: <= 0
 R2_3: 4 R{5,1} + 4 R{5,2} + 4 R{5,3} + 4 R{5,4} + 4 R{5,5} + 4 R{5,6}
   + 4 R{5,7} <= 4
 R2_4: <= 0
 R2_5: 5 R{5,1} + 5 R{5,2} <= 5
 R2_6: 10 R{1,1} + 10 R{1,2} + 10 R{1,3} + 10 R{1,4} + 10 R{1,5}
   + 10 R{1,6} <= 10
 R2_7: 6 R{1,1} + 6 R{1,5} <= 6
 R2_8: <= 0
 R2_9: 12 R{4,1} + 12 R{4,2} + 12 R{4,3} + 12 R{4,4} + 12 R{4,5}
   + 12 R{4,6} + 12 R{4,7} + 12 R{4,8} + 12 R{4,11} <= 12
 R2_10: 8 R{6,1} + 8 R{6,2} + 8 R{6,4} + 8 R{6,5} + 8 R{6,6} + 8 R{6,7}
   + 8 R{6,8} + 8 R{6,10} + 8 R{6,12} <= 8
 R2_11: <= 0
 R2_12: <= 0
 R2_13: <= 0
 R2_14: <= 0
 R2_15: 11 R{0,0} + 11 R{0,1} + 11 R{0,2} + 11 R{0,7} + 11 R{4,1}
   + 11 R{4,2} + 11 R{4,6} + 11 R{4,7} <= 11
 R2_16: <= 0
 R2_17: <= 0
 R2_18: <= 0
 R2_19: 11 R{2,10} + 11 R{4,1} + 11 R{4,2} + 11 R{4,3} + 11 R{4,4}
   + 11 R{4,5} + 11 R{4,6} + 11 R{4,7} + 11 R{4,8} + 11 R{4,9} + 11 R{4,11}
   + 11 R{4,12} + 11 R{6,10} <= 11
 R2_20: 13 R{2,5} + 13 R{2,6} + 13 R{4,6} + 13 R{6,1} + 13 R{6,2}
   + 13 R{6,3} + 13 R{6,4} + 13 R{6,5} + 13 R{6,6} + 13 R{6,7} + 13 R{6,10}
   + 13 R{6,11} + 13 R{6,13} + 13 R{6,15} + 13 R{6,16} + 13 R{6,17} <= 13
 R2_21: <= 0
 R2_22: 10 R{4,9} + 10 R{4,10} + 10 R{4,12} <= 10
 R2_23: 14 R{0,1} + 14 R{0,2} + 14 R{0,7} + 14 R{0,8} + 14 R{0,10}
   + 14 R{2,0} + 14 R{2,1} + 14 R{2,7} + 14 R{2,8} + 14 R{4,9} + 14 R{6,2}
   + 14 R{6,3} + 14 R{6,6} + 14 R{6,7} + 14 R{6,13} + 14 R{6,15} <= 14
 R2_24: 10 R{1,5} + 10 R{3,1} + 10 R{3,2} + 10 R{3,3} + 10 R{3,4}
   + 10 R{3,5} + 10 R{3,7} <= 10
 R2_25: 13 R{3,7} + 13 R{3,9} + 13 R{3,10} + 13 R{4,1} + 13 R{4,2}
   + 13 R{4,3} + 13 R{4,5} + 13 R{4,6} + 13 R{4,7} + 13 R{4,8} <= 13
 R2_26: 6 R{5,1} + 6 R{5,2} + 6 R{5,3} + 6 R{5,4} + 6 R{5,5} + 6 R{5,6}
   + 6 R{5,7} <= 6
 R2_27: 5 R{1,4} + 5 R{1,6} + 5 R{3,6} + 5 R{3,8} + 5 R{6,1} + 5 R{6,2}
   + 5 R{6,3} + 5 R{6,4} + 5 R{6,5} + 5 R{6,6} + 5 R{6,7} + 5 R{6,8}
   + 5 R{6,9} + 5 R{6,10} + 5 R{6,11} + 5 R{6,13} + 5 R{6,14} + 5 R{6,16}
   <= 5
 R2_28: <= 0
 R2_29: <= 0
 R2_30: <= 0
 R2_31: <= 0
 R2_32: 7 R{0,4} + 7 R{0,5} + 7 R{0,6} + 7 R{0,11} <= 7
 R2_33: 12 R{3,8} <= 12
 R2_34: 5 R{1,7} <= 5
 R2_35: <= 0
 R2_36: <= 0
 R2_37: 5 R{3,1} + 5 R{3,2} + 5 R{3,3} + 5 R{3,5} + 5 R{3,7} + 5 R{3,9}
   + 5 R{3,10} + 5 R{5,7} <= 5
 R2_38: <= 0
 R2_39: <= 0
 R2_40: 15 R{2,3} + 15 R{2,4} + 15 R{2,5} + 15 R{2,6} + 15 R{2,10} <= 15
 R2_41: 5 R{2,9} + 5 R{3,2} + 5 R{3,4} + 5 R{3,5} + 5 R{3,6} + 5 R{3,7}
   + 5 R{3,10} + 5 R{4,4} + 5 R{4,7} + 5 R{4,11} + 5 R{6,8} + 5 R{6,12}
   <= 5
 R2_42: 4 R{2,3} + 4 R{2,4} + 4 R{2,5} + 4 R{2,6} + 4 R{2,10} <= 4
 R2_43: <= 0
 R2_44: <= 0
 R2_45: <= 0
 R2_46: 9 R{0,9} + 9 R{4,5} + 9 R{4,8} + 9 R{4,10} + 9 R{6,17} <= 9
 R2_47: 7 R{5,1} + 7 R{5,2} + 7 R{5,3} + 7 R{5,4} + 7 R{5,5} + 7 R{5,6}
   <= 7
 R2_48: 4 R{4,1} + 4 R{4,2} + 4 R{4,3} + 4 R{4,4} + 4 R{4,5} + 4 R{4,6}
   + 4 R{4,7} + 4 R{4,8} + 4 R{4,9} + 4 R{4,10} + 4 R{4,12} <= 4
 R2_49: <= 0
 R2_50: <= 0
 R2_51: 11 R{4,1} <= 11
 R2_52: 10 R{4,12} <= 10
 R2_53: 13 R{4,1} + 13 R{4,2} + 13 R{4,3} + 13 R{4,4} + 13 R{4,5}
   + 13 R{4,6} <= 13
 R2_54: 9 R{3,1} + 9 R{3,2} + 9 R{3,3} + 9 R{3,4} + 9 R{3,5} + 9 R{3,6}
   <= 9
 R2_55: 8 R{6,1} + 8 R{6,2} + 8 R{6,3} + 8 R{6,4} + 8 R{6,5} + 8 R{6,7}
   + 8 R{6,8} + 8 R{6,9} + 8 R{6,10} + 8 R{6,11} + 8 R{6,12} + 8 R{6,13}
   + 8 R{6,14} + 8 R{6,15} + 8 R{6,16} + 8 R{6,17} <= 8
 R2_56: 6 R{2,0} + 6 R{2,1} + 6 R{2,8} + 6 R{2,9} + 6 R{4,8} + 6 R{6,2}
   + 6 R{6,3} + 6 R{6,7} + 6 R{6,9} + 6 R{6,11} + 6 R{6,14} + 6 R{6,16}
   <= 6
 R2_57: <= 0
 R2_58: <= 0
 R2_59: 10 R{4,9} + 10 R{4,10} + 10 R{4,12} + 10 R{6,15} <= 10
 R2_60: <= 0
 R2_61: 9 R{2,7} + 9 R{4,9} + 9 R{4,10} + 9 R{4,11} + 9 R{4,12} + 9 R{6,16}
   <= 9
 R2_62: <= 0
 R2_63: <= 0
 R2_64: <= 0
 R2_65: 5 R{2,0} + 5 R{2,1} + 5 R{2,7} + 5 R{6,1} + 5 R{6,2} + 5 R{6,3}
   + 5 R{6,4} + 5 R{6,5} + 5 R{6,6} + 5 R{6,8} + 5 R{6,10} + 5 R{6,12}
   + 5 R{6,13} + 5 R{6,14} + 5 R{6,15} + 5 R{6,17} <= 5
 R2_66: 7 R{6,1} + 7 R{6,2} + 7 R{6,3} + 7 R{6,4} + 7 R{6,5} + 7 R{6,6}
   + 7 R{6,7} + 7 R{6,8} + 7 R{6,9} + 7 R{6,11} + 7 R{6,12} + 7 R{6,14}
   + 7 R{6,16} <= 7
 R2_67: 3 R{0,1} + 3 R{0,2} + 3 R{0,8} + 3 R{2,0} + 3 R{2,1} + 3 R{2,8}
   + 3 R{2,9} + 3 R{6,3} + 3 R{6,13} + 3 R{6,14} + 3 R{6,15} + 3 R{6,17}
   <= 3
 R2_68: 6 R{1,1} + 6 R{1,2} + 6 R{1,3} + 6 R{1,4} + 6 R{1,5} + 6 R{1,6}
   + 6 R{1,7} <= 6
 R2_69: 7 R{4,1} + 7 R{4,2} + 7 R{4,3} + 7 R{4,4} + 7 R{4,5} + 7 R{4,6}
   + 7 R{4,7} + 7 R{4,8} + 7 R{4,9} + 7 R{4,11} + 7 R{4,12} <= 7
 R2_70: 11 R{1,1} + 11 R{1,2} + 11 R{1,3} + 11 R{1,6} <= 11
 R2_71: 7 R{3,9} + 7 R{3,10} + 7 R{6,1} + 7 R{6,2} + 7 R{6,3} + 7 R{6,4}
   + 7 R{6,5} + 7 R{6,6} + 7 R{6,7} + 7 R{6,9} + 7 R{6,10} + 7 R{6,11}
   + 7 R{6,12} + 7 R{6,13} + 7 R{6,14} + 7 R{6,15} + 7 R{6,16} + 7 R{6,17}
   <= 7
 R2_72: <= 0
 R2_73: <= 0
 R2_74: 5 R{5,1} + 5 R{5,3} + 5 R{5,4} + 5 R{5,5} + 5 R{5,6} + 5 R{5,7}
   <= 5
 R2_75: 8 R{6,1} + 8 R{6,2} + 8 R{6,3} + 8 R{6,5} + 8 R{6,6} + 8 R{6,7}
   + 8 R{6,9} + 8 R{6,10} + 8 R{6,11} + 8 R{6,13} + 8 R{6,14} + 8 R{6,16}
   + 8 R{6,17} <= 8
 R2_76: 12 R{0,4} + 12 R{0,5} + 12 R{0,6} + 12 R{0,11} + 12 R{6,13}
   + 12 R{6,15} + 12 R{6,17} <= 12
 R2_77: 7 R{0,5} + 7 R{0,6} + 7 R{1,2} + 7 R{1,3} + 7 R{1,6} + 7 R{1,7}
   + 7 R{2,4} + 7 R{2,5} + 7 R{2,10} + 7 R{4,2} + 7 R{4,3} + 7 R{4,5}
   + 7 R{5,2} <= 7
Bounds
End
